%%% static parameters %%%
Fact = [3];
Distr1 = [10];
Distr2 = [20];
Clients_N = [40];
Demand_W = [15];
Lt0 = [4];
Lt1 = [4];
SS_ = [0.85];
DS_D = [7];
K = [200];
MA = [500];
%%% dynamic parameters %%%
lost_ratio_sales_ret_th = 0.4770596767966967;
lost_ratio_sales_ret_w = 9;
lost_ratio_sales_dis_th = 0.47261573608363794;
lost_ratio_sales_dis_w = 49;
lost_ratio_sales_fac_th = 0.8194818101386504;
lost_ratio_sales_fac_w = 90;
stock_customer_MA_mean_relative_th = 0.37950344814155623;
stock_customer_MA_mean_relative_w = 63;
stock_distributor_MA_mean_relative_th = 0.28576798637200596;
stock_distributor_MA_mean_relative_w = 77;
stock_retailer_MA_mean_relative_th = 0.0881847032349049;
stock_retailer_MA_mean_relative_w = 19;
stock_factory_MA_mean_relative_th = 0.5130931971977445;
stock_factory_MA_mean_relative_w = 55;
